numOfInstructors = 7;

INSTRUCTORS = {T1, T2, T3, T4, T5, T6, T7};

CLASSES = {E, C1, C2, C3, C4, C5, C6, C7, C8, C9, C10, C11, C12, C13, C14, C15, C16, C17, C18, C19, C20, C21, C22, C23, C24, C25, C26, C27, C28, C29, C30, C31, C32};

numOfConflicts = 1;

DISJUNCT_INPUT = [C1, C2];

numOfParallelLectures = 2;

PARALLEL_LEC_INPUT = [C2, C7, C12, C18];

W_BUSY_INPUT = [
0,
1,
1,
1,
1,
1,
1,
1,
1,
1,
0,
0,

0,
0,
0,
0,
0,
0,
0,
0,
0,
0,
0,
0,

0,
0,
0,
0,
0,
0,
0,
0,
0,
0,
0,
0,

0,
0,
0,
0,
0,
0,
0,
0,
0,
0,
0,
0,

0,
0,
0,
0,
0,
0,
0,
0,
1,
1,
0,
0,

0,
0,
0,
0,
0,
0,
0,
0,
0,
0,
0,
0,

0,
0,
0,
0,
0,
0,
0,
0,
0,
0,
0,
0];


BUSY_INPUT = [
0, 0, 0, 0, 0,
0, 0, 0, 0, 0,
0, 0, 0, 0, 0,
0, 0, 0, 0, 0,
0, 0, 0, 0, 0,
0, 0, 0, 0, 0,
0, 0, 0, 0, 0,
0, 0, 0, 0, 0,

0, 0, 0, 0, 0,
0, 0, 0, 0, 0,
0, 0, 0, 0, 0,
0, 0, 0, 0, 0,
0, 0, 0, 0, 0,
0, 0, 0, 0, 0,
0, 0, 0, 0, 0,
0, 0, 0, 0, 0,

0, 0, 0, 0, 0,
0, 0, 0, 0, 0,
0, 0, 0, 0, 0,
0, 0, 0, 0, 0,
0, 0, 0, 0, 0,
0, 0, 0, 0, 0,
0, 0, 0, 0, 0,
0, 0, 0, 0, 0,

0, 0, 0, 0, 0,
0, 0, 0, 0, 0,
0, 0, 0, 0, 0,
0, 0, 0, 0, 0,
0, 0, 0, 0, 0,
0, 0, 0, 0, 0,
0, 0, 0, 0, 0,
0, 0, 0, 0, 0,

0, 0, 0, 0, 0,
0, 0, 0, 0, 0,
0, 0, 0, 0, 0,
0, 0, 0, 0, 0,
0, 0, 0, 0, 0,
0, 0, 0, 0, 0,
0, 0, 0, 0, 0,
0, 0, 0, 0, 0,

1, 0, 0, 1, 0,
1, 0, 0, 1, 0,
0, 0, 0, 0, 0,
0, 0, 0, 0, 0,
0, 0, 0, 0, 0,
0, 0, 0, 0, 0,
0, 1, 0, 0, 1,
0, 1, 0, 0, 1,

0, 0, 0, 0, 0,
0, 0, 0, 0, 0,
0, 0, 0, 0, 0,
0, 0, 0, 0, 0,
0, 0, 0, 0, 0,
0, 0, 0, 0, 0,
0, 0, 0, 0, 0,
0, 0, 0, 0, 0];

CLASS_DETAILS_INPUT =  [
E, T1, 30, 1, 0,
C1, T1, 35, 1, 0,
C2, T5, 40, 3, 0,
C3, T5, 34, 2, 0,
C4, T6, 40, 4, 0,
C5, T5, 45, 3, 0,
C6, T5, 45, 4, 0,
C7, T6, 34, 3, 0,
C8, T6, 45, 4, 0,
C9, T1, 45, 1, 0,
C10, T1, 45, 2, 0,
C11, T1, 45, 3, 0,
C12, T6, 23, 1, 0,
C13, T6, 23, 4, 0,
C14, T6, 23, 3, 0,
C15, T6, 34, 1, 0,
C16, T6, 34, 2, 0,
C17, T6, 34, 3, 0,
C18, T1, 34, 1, 0,
C19, T1, 34, 4, 0,
C20, T1, 34, 3, 0,
C21, T6, 34, 1, 0,
C22, T6, 34, 2, 0,
C23, T6, 34, 3, 0,
C24, T6, 34, 1, 0,
C25, T6, 34, 2, 0,
C26, T6, 34, 3, 0,
C27, T6, 56, 1, 0,
C28, T1, 56, 4, 0,
C29, T6, 56, 3, 0,
C30, T6, 34, 1, 0,
C31, T1, 34, 2, 0,
C32, T6, 34, 3, 0]

